ilp_joint/output/osmosis_ilp.lp
Maximize
  0.0104214865028459 Z_110_0_0 + 0.00746684849783519 Z_110_0_1
   + 0.00140522119011017 Z_110_0_2 + 0.0622741496003758 Z_110_0_3
   + 0.8184322942088329 Z_110_0_4 + 2.5525165982038118e-04 Z_309_0_0
   + 6.3008643022770814e-04 Z_309_0_1 + 0.8300845390287949 Z_309_0_2
   + 0.00233078900543405 Z_309_0_3 + 0.066699333875723 Z_309_0_4
   + 2.59143e-05 Z_53_0_0 + 0.00373715308436006 Z_53_0_1
   + 0.8715478232423451 Z_53_0_2 + 0.00678532576751696 Z_53_0_3
   + 0.0179037836284237 Z_53_0_4 + 0.0012169755907151 Z_82_0_0
   + 0.00107883906090843 Z_82_0_1 + 0.7598228516299913 Z_82_0_2
   + 0.00208651857603705 Z_82_0_3 + 0.135794815142348 Z_82_0_4
   + 0.000991714 Z_306_0_0 + 0.00176083981523632 Z_306_0_1
   + 0.6248397540317084 Z_306_0_2 + 0.00750383526876981 Z_306_0_3
   + 0.2649038569485986 Z_306_0_4 + 0.000356516 Z_302_0_0
   + 0.00190695230375152 Z_302_0_1 + 0.632667530400296 Z_302_0_2
   + 0.00092897 Z_302_0_3 + 0.2641400314286476 Z_302_0_4
   + 4.7698840638572631e-04 Z_516_0_0 + 0.0057068597785039 Z_516_0_1
   + 0.7701924669546215 Z_516_0_2 + 0.0024909815049925 Z_516_0_3
   + 0.1211327033554964 Z_516_0_4 + 3.0046549291566199e-04 Z_296_0_0
   + 0.00248919793385902 Z_296_0_1 + 0.6508415182216094 Z_296_0_2
   + 7.0885152473899372e-04 Z_296_0_3 + 0.245659966826877 Z_296_0_4
   + 0.002677272916067 Z_642_0_0 + 0.00414111117795318 Z_642_0_1
   + 0.6650495544934314 Z_642_0_2 + 0.00225323182458349 Z_642_0_3
   + 0.225878829587965 Z_642_0_4 + 0.00456697922944139 Z_696_0_0
   + 0.00298950798697376 Z_696_0_1 + 0.00634812429614417 Z_696_0_2
   + 0.1919700313697454 Z_696_0_3 + 0.6941253571176955 Z_696_0_4
   + 0.000822446 Z_52_0_0 + 0.00545151541318168 Z_52_0_1
   + 0.7051630665164248 Z_52_0_2 + 0.00137164742186592 Z_52_0_3
   + 0.1871913245956973 Z_52_0_4 + 5.4990311201200863e-04 Z_619_0_0
   + 0.00386799272972589 Z_619_0_1 + 0.7835008118375314 Z_619_0_2
   + 0.00166717891718084 Z_619_0_3 + 0.1104141134035498 Z_619_0_4
   + 8.8160049272370544e-04 Z_504_0_0 + 0.00153323215192403 Z_504_0_1
   + 0.6014565465326441 Z_504_0_2 + 0.011074504888001 Z_504_0_3
   + 0.2850541159347071 Z_504_0_4 + 0.0901006247137219 Z_535_2_0
   + 0.0654709277281641 Z_535_2_1 + 0.00231495753052067 Z_535_2_2
   + 0.2331836833347772 Z_535_2_3 + 0.5089298066928161 Z_535_2_4
   + 4.7698840638572631e-04 Z_535_1_0 + 0.0057068597785039 Z_535_1_1
   + 0.7701924669546215 Z_535_1_2 + 0.0024909815049925 Z_535_1_3
   + 0.1211327033554964 Z_535_1_4 + 0.0325085127216559 Z_535_3_0
   + 0.0261497743236572 Z_535_3_1 + 0.0138101454291091 Z_535_3_2
   + 0.0724938897218626 Z_535_3_3 + 0.7550376778037154 Z_535_3_4
   + 4.7698840638572631e-04 Z_535_0_0 + 0.0057068597785039 Z_535_0_1
   + 0.7701924669546215 Z_535_0_2 + 0.0024909815049925 Z_535_0_3
   + 0.1211327033554964 Z_535_0_4 + 0.00162906853767577 Z_101_0_0
   + 0.00122222036065625 Z_101_0_1 + 0.0053829823230303 Z_101_0_2
   + 0.415961844547978 Z_101_0_3 + 0.4758038842306598 Z_101_0_4
   + 3.9932868513222521e-04 Z_728_0_0 + 0.0026546857444093 Z_728_0_1
   + 0.8089117334706084 Z_728_0_2 + 0.00356702432274073 Z_728_0_3
   + 0.0844672277771093 Z_728_0_4 + 0.00207766029609041 Z_334_0_0
   + 0.00136340923320195 Z_334_0_1 + 0.00354602904721898 Z_334_0_2
   + 0.4181107246968234 Z_334_0_3 + 0.4749021767266653 Z_334_0_4
   + 0.000356516 Z_727_0_0 + 0.00190695230375152 Z_727_0_1
   + 0.632667530400296 Z_727_0_2 + 0.00092897 Z_727_0_3
   + 0.2641400314286476 Z_727_0_4 + 0.1683256426200261 Z_185_6_0
   + 0.00449344847264209 Z_185_6_1 + 0.0618410657488006 Z_185_6_2
   + 0.0171534598083111 Z_185_6_3 + 0.6481863833502202 Z_185_6_4
   + 0.0215362868040567 Z_185_0_0 + 0.00243931208485616 Z_185_0_1
   + 0.112219366983362 Z_185_0_2 + 0.1741651251252721 Z_185_0_3
   + 0.5896399090024531 Z_185_0_4 + 0.0215362868040567 Z_185_3_0
   + 0.00243931208485616 Z_185_3_1 + 0.112219366983362 Z_185_3_2
   + 0.1741651251252721 Z_185_3_3 + 0.5896399090024531 Z_185_3_4
   + 0.0215362868040567 Z_185_1_0 + 0.00243931208485616 Z_185_1_1
   + 0.112219366983362 Z_185_1_2 + 0.1741651251252721 Z_185_1_3
   + 0.5896399090024531 Z_185_1_4 + 0.0773486395157683 Z_185_4_0
   + 0.058934407597101 Z_185_4_1 + 0.00196583915699687 Z_185_4_2
   + 0.2068035192878917 Z_185_4_3 + 0.5549475944422422 Z_185_4_4
   + 0.000165774 Z_185_2_0 + 0.00124740169536162 Z_185_2_1
   + 0.5461851319770872 Z_185_2_2 + 5.3515345364894677e-04 Z_185_2_3
   + 0.3518665389266177 Z_185_2_4 + 4.7698840638572631e-04 Z_607_0_0
   + 0.0057068597785039 Z_607_0_1 + 0.7701924669546215 Z_607_0_2
   + 0.0024909815049925 Z_607_0_3 + 0.1211327033554964 Z_607_0_4
   + 6.80182e-05 Z_246_0_0 + 0.0101844463938491 Z_246_0_1
   + 0.6846610111227242 Z_246_0_2 + 0.00173085267260484 Z_246_0_3
   + 0.2033556715730306 Z_246_0_4
Subject To
 constraint1_1100: Z_110_0_0 + Z_110_0_1 + Z_110_0_2 + Z_110_0_3
   + Z_110_0_4 <= 1
 constraint1_3090: Z_309_0_0 + Z_309_0_1 + Z_309_0_2 + Z_309_0_3
   + Z_309_0_4 <= 1
 constraint1_530: Z_53_0_0 + Z_53_0_1 + Z_53_0_2 + Z_53_0_3 + Z_53_0_4
   <= 1
 constraint1_820: Z_82_0_0 + Z_82_0_1 + Z_82_0_2 + Z_82_0_3 + Z_82_0_4
   <= 1
 constraint1_3060: Z_306_0_0 + Z_306_0_1 + Z_306_0_2 + Z_306_0_3
   + Z_306_0_4 <= 1
 constraint1_3020: Z_302_0_0 + Z_302_0_1 + Z_302_0_2 + Z_302_0_3
   + Z_302_0_4 <= 1
 constraint1_5160: Z_516_0_0 + Z_516_0_1 + Z_516_0_2 + Z_516_0_3
   + Z_516_0_4 <= 1
 constraint1_2960: Z_296_0_0 + Z_296_0_1 + Z_296_0_2 + Z_296_0_3
   + Z_296_0_4 <= 1
 constraint1_6420: Z_642_0_0 + Z_642_0_1 + Z_642_0_2 + Z_642_0_3
   + Z_642_0_4 <= 1
 constraint1_6960: Z_696_0_0 + Z_696_0_1 + Z_696_0_2 + Z_696_0_3
   + Z_696_0_4 <= 1
 constraint1_520: Z_52_0_0 + Z_52_0_1 + Z_52_0_2 + Z_52_0_3 + Z_52_0_4
   <= 1
 constraint1_6190: Z_619_0_0 + Z_619_0_1 + Z_619_0_2 + Z_619_0_3
   + Z_619_0_4 <= 1
 constraint1_5040: Z_504_0_0 + Z_504_0_1 + Z_504_0_2 + Z_504_0_3
   + Z_504_0_4 <= 1
 constraint1_5352: Z_535_2_0 + Z_535_2_1 + Z_535_2_2 + Z_535_2_3
   + Z_535_2_4 <= 1
 constraint1_5351: Z_535_1_0 + Z_535_1_1 + Z_535_1_2 + Z_535_1_3
   + Z_535_1_4 <= 1
 constraint1_5353: Z_535_3_0 + Z_535_3_1 + Z_535_3_2 + Z_535_3_3
   + Z_535_3_4 <= 1
 constraint1_5350: Z_535_0_0 + Z_535_0_1 + Z_535_0_2 + Z_535_0_3
   + Z_535_0_4 <= 1
 constraint1_1010: Z_101_0_0 + Z_101_0_1 + Z_101_0_2 + Z_101_0_3
   + Z_101_0_4 <= 1
 constraint1_7280: Z_728_0_0 + Z_728_0_1 + Z_728_0_2 + Z_728_0_3
   + Z_728_0_4 <= 1
 constraint1_3340: Z_334_0_0 + Z_334_0_1 + Z_334_0_2 + Z_334_0_3
   + Z_334_0_4 <= 1
 constraint1_7270: Z_727_0_0 + Z_727_0_1 + Z_727_0_2 + Z_727_0_3
   + Z_727_0_4 <= 1
 constraint1_1856: Z_185_6_0 + Z_185_6_1 + Z_185_6_2 + Z_185_6_3
   + Z_185_6_4 <= 1
 constraint1_1850: Z_185_0_0 + Z_185_0_1 + Z_185_0_2 + Z_185_0_3
   + Z_185_0_4 <= 1
 constraint1_1853: Z_185_3_0 + Z_185_3_1 + Z_185_3_2 + Z_185_3_3
   + Z_185_3_4 <= 1
 constraint1_1851: Z_185_1_0 + Z_185_1_1 + Z_185_1_2 + Z_185_1_3
   + Z_185_1_4 <= 1
 constraint1_1854: Z_185_4_0 + Z_185_4_1 + Z_185_4_2 + Z_185_4_3
   + Z_185_4_4 <= 1
 constraint1_1852: Z_185_2_0 + Z_185_2_1 + Z_185_2_2 + Z_185_2_3
   + Z_185_2_4 <= 1
 constraint1_6070: Z_607_0_0 + Z_607_0_1 + Z_607_0_2 + Z_607_0_3
   + Z_607_0_4 <= 1
 constraint1_2460: Z_246_0_0 + Z_246_0_1 + Z_246_0_2 + Z_246_0_3
   + Z_246_0_4 <= 1
 constraint2_1450: <= 1
 constraint2_1451: <= 1
 constraint2_1452: <= 1
 constraint2_1453: <= 1
 constraint2_1100: Z_110_0_0 <= 1
 constraint2_1101: Z_110_0_1 <= 1
 constraint2_1102: Z_110_0_2 <= 1
 constraint2_1103: Z_110_0_3 <= 1
 constraint2_70: <= 1
 constraint2_71: <= 1
 constraint2_72: <= 1
 constraint2_73: <= 1
 constraint2_3090: Z_309_0_0 <= 1
 constraint2_3091: Z_309_0_1 <= 1
 constraint2_3092: Z_309_0_2 <= 1
 constraint2_3093: Z_309_0_3 <= 1
 constraint2_5870: <= 1
 constraint2_5871: <= 1
 constraint2_5872: <= 1
 constraint2_5873: <= 1
 constraint2_530: Z_53_0_0 <= 1
 constraint2_531: Z_53_0_1 <= 1
 constraint2_532: Z_53_0_2 <= 1
 constraint2_533: Z_53_0_3 <= 1
 constraint2_820: Z_82_0_0 <= 1
 constraint2_821: Z_82_0_1 <= 1
 constraint2_822: Z_82_0_2 <= 1
 constraint2_823: Z_82_0_3 <= 1
 constraint2_3060: Z_306_0_0 <= 1
 constraint2_3061: Z_306_0_1 <= 1
 constraint2_3062: Z_306_0_2 <= 1
 constraint2_3063: Z_306_0_3 <= 1
 constraint2_3020: Z_302_0_0 <= 1
 constraint2_3021: Z_302_0_1 <= 1
 constraint2_3022: Z_302_0_2 <= 1
 constraint2_3023: Z_302_0_3 <= 1
 constraint2_5160: Z_516_0_0 <= 1
 constraint2_5161: Z_516_0_1 <= 1
 constraint2_5162: Z_516_0_2 <= 1
 constraint2_5163: Z_516_0_3 <= 1
 constraint2_2960: Z_296_0_0 <= 1
 constraint2_2961: Z_296_0_1 <= 1
 constraint2_2962: Z_296_0_2 <= 1
 constraint2_2963: Z_296_0_3 <= 1
 constraint2_6420: Z_642_0_0 <= 1
 constraint2_6421: Z_642_0_1 <= 1
 constraint2_6422: Z_642_0_2 <= 1
 constraint2_6423: Z_642_0_3 <= 1
 constraint2_6960: Z_696_0_0 <= 1
 constraint2_6961: Z_696_0_1 <= 1
 constraint2_6962: Z_696_0_2 <= 1
 constraint2_6963: Z_696_0_3 <= 1
 constraint2_4590: <= 1
 constraint2_4591: <= 1
 constraint2_4592: <= 1
 constraint2_4593: <= 1
 constraint2_520: Z_52_0_0 <= 1
 constraint2_521: Z_52_0_1 <= 1
 constraint2_522: Z_52_0_2 <= 1
 constraint2_523: Z_52_0_3 <= 1
 constraint2_360: <= 1
 constraint2_361: <= 1
 constraint2_362: <= 1
 constraint2_363: <= 1
 constraint2_6190: Z_619_0_0 <= 1
 constraint2_6191: Z_619_0_1 <= 1
 constraint2_6192: Z_619_0_2 <= 1
 constraint2_6193: Z_619_0_3 <= 1
 constraint2_5040: Z_504_0_0 <= 1
 constraint2_5041: Z_504_0_1 <= 1
 constraint2_5042: Z_504_0_2 <= 1
 constraint2_5043: Z_504_0_3 <= 1
 constraint2_540: <= 1
 constraint2_541: <= 1
 constraint2_542: <= 1
 constraint2_543: <= 1
 constraint2_6990: <= 1
 constraint2_6991: <= 1
 constraint2_6992: <= 1
 constraint2_6993: <= 1
 constraint2_5350: Z_535_2_0 + Z_535_1_0 + Z_535_3_0 + Z_535_0_0 <= 1
 constraint2_5351: Z_535_2_1 + Z_535_1_1 + Z_535_3_1 + Z_535_0_1 <= 1
 constraint2_5352: Z_535_2_2 + Z_535_1_2 + Z_535_3_2 + Z_535_0_2 <= 1
 constraint2_5353: Z_535_2_3 + Z_535_1_3 + Z_535_3_3 + Z_535_0_3 <= 1
 constraint2_1010: Z_101_0_0 <= 1
 constraint2_1011: Z_101_0_1 <= 1
 constraint2_1012: Z_101_0_2 <= 1
 constraint2_1013: Z_101_0_3 <= 1
 constraint2_7280: Z_728_0_0 <= 1
 constraint2_7281: Z_728_0_1 <= 1
 constraint2_7282: Z_728_0_2 <= 1
 constraint2_7283: Z_728_0_3 <= 1
 constraint2_3340: Z_334_0_0 <= 1
 constraint2_3341: Z_334_0_1 <= 1
 constraint2_3342: Z_334_0_2 <= 1
 constraint2_3343: Z_334_0_3 <= 1
 constraint2_7270: Z_727_0_0 <= 1
 constraint2_7271: Z_727_0_1 <= 1
 constraint2_7272: Z_727_0_2 <= 1
 constraint2_7273: Z_727_0_3 <= 1
 constraint2_1850: Z_185_6_0 + Z_185_0_0 + Z_185_3_0 + Z_185_1_0
   + Z_185_4_0 + Z_185_2_0 <= 1
 constraint2_1851: Z_185_6_1 + Z_185_0_1 + Z_185_3_1 + Z_185_1_1
   + Z_185_4_1 + Z_185_2_1 <= 1
 constraint2_1852: Z_185_6_2 + Z_185_0_2 + Z_185_3_2 + Z_185_1_2
   + Z_185_4_2 + Z_185_2_2 <= 1
 constraint2_1853: Z_185_6_3 + Z_185_0_3 + Z_185_3_3 + Z_185_1_3
   + Z_185_4_3 + Z_185_2_3 <= 1
 constraint2_6070: Z_607_0_0 <= 1
 constraint2_6071: Z_607_0_1 <= 1
 constraint2_6072: Z_607_0_2 <= 1
 constraint2_6073: Z_607_0_3 <= 1
 constraint2_2460: Z_246_0_0 <= 1
 constraint2_2461: Z_246_0_1 <= 1
 constraint2_2462: Z_246_0_2 <= 1
 constraint2_2463: Z_246_0_3 <= 1
Bounds
Binaries
 Z_110_0_0 Z_110_0_1 Z_110_0_2 Z_110_0_3 Z_110_0_4 Z_309_0_0 Z_309_0_1
 Z_309_0_2 Z_309_0_3 Z_309_0_4 Z_53_0_0 Z_53_0_1 Z_53_0_2 Z_53_0_3 Z_53_0_4
 Z_82_0_0 Z_82_0_1 Z_82_0_2 Z_82_0_3 Z_82_0_4 Z_306_0_0 Z_306_0_1 Z_306_0_2
 Z_306_0_3 Z_306_0_4 Z_302_0_0 Z_302_0_1 Z_302_0_2 Z_302_0_3 Z_302_0_4
 Z_516_0_0 Z_516_0_1 Z_516_0_2 Z_516_0_3 Z_516_0_4 Z_296_0_0 Z_296_0_1
 Z_296_0_2 Z_296_0_3 Z_296_0_4 Z_642_0_0 Z_642_0_1 Z_642_0_2 Z_642_0_3
 Z_642_0_4 Z_696_0_0 Z_696_0_1 Z_696_0_2 Z_696_0_3 Z_696_0_4 Z_52_0_0
 Z_52_0_1 Z_52_0_2 Z_52_0_3 Z_52_0_4 Z_619_0_0 Z_619_0_1 Z_619_0_2
 Z_619_0_3 Z_619_0_4 Z_504_0_0 Z_504_0_1 Z_504_0_2 Z_504_0_3 Z_504_0_4
 Z_535_2_0 Z_535_2_1 Z_535_2_2 Z_535_2_3 Z_535_2_4 Z_535_1_0 Z_535_1_1
 Z_535_1_2 Z_535_1_3 Z_535_1_4 Z_535_3_0 Z_535_3_1 Z_535_3_2 Z_535_3_3
 Z_535_3_4 Z_535_0_0 Z_535_0_1 Z_535_0_2 Z_535_0_3 Z_535_0_4 Z_101_0_0
 Z_101_0_1 Z_101_0_2 Z_101_0_3 Z_101_0_4 Z_728_0_0 Z_728_0_1 Z_728_0_2
 Z_728_0_3 Z_728_0_4 Z_334_0_0 Z_334_0_1 Z_334_0_2 Z_334_0_3 Z_334_0_4
 Z_727_0_0 Z_727_0_1 Z_727_0_2 Z_727_0_3 Z_727_0_4 Z_185_6_0 Z_185_6_1
 Z_185_6_2 Z_185_6_3 Z_185_6_4 Z_185_0_0 Z_185_0_1 Z_185_0_2 Z_185_0_3
 Z_185_0_4 Z_185_3_0 Z_185_3_1 Z_185_3_2 Z_185_3_3 Z_185_3_4 Z_185_1_0
 Z_185_1_1 Z_185_1_2 Z_185_1_3 Z_185_1_4 Z_185_4_0 Z_185_4_1 Z_185_4_2
 Z_185_4_3 Z_185_4_4 Z_185_2_0 Z_185_2_1 Z_185_2_2 Z_185_2_3 Z_185_2_4
 Z_607_0_0 Z_607_0_1 Z_607_0_2 Z_607_0_3 Z_607_0_4 Z_246_0_0 Z_246_0_1
 Z_246_0_2 Z_246_0_3 Z_246_0_4
End
