ilp_joint/output/osmosis_ilp.mps
NAME osmosis_srl_ilp
* Max problem is converted into Min one
ROWS
 N  OBJ
 L  constraint1_6120
 L  constraint1_2962
 L  constraint1_2961
 L  constraint1_2963
 L  constraint1_2960
 L  constraint1_1960
 L  constraint1_1040
 L  constraint2_6120
 L  constraint2_6121
 L  constraint2_6122
 L  constraint2_6123
 L  constraint2_5630
 L  constraint2_5631
 L  constraint2_5632
 L  constraint2_5633
 L  constraint2_2960
 L  constraint2_2961
 L  constraint2_2962
 L  constraint2_2963
 L  constraint2_1960
 L  constraint2_1961
 L  constraint2_1962
 L  constraint2_1963
 L  constraint2_3690
 L  constraint2_3691
 L  constraint2_3692
 L  constraint2_3693
 L  constraint2_1040
 L  constraint2_1041
 L  constraint2_1042
 L  constraint2_1043
COLUMNS
    MARKER    'MARKER'                 'INTORG'
    Z_612_0_0  OBJ       -3.9739808302430215e-04
    Z_612_0_0  constraint1_6120  1
    Z_612_0_0  constraint2_6120  1
    Z_612_0_1  OBJ       -2.6939577146873313e-03
    Z_612_0_1  constraint1_6120  1
    Z_612_0_1  constraint2_6121  1
    Z_612_0_2  OBJ       -7.9882589454873609e-01
    Z_612_0_2  constraint1_6120  1
    Z_612_0_2  constraint2_6122  1
    Z_612_0_3  OBJ       -6.4663103608904771e-04
    Z_612_0_3  constraint1_6120  1
    Z_612_0_3  constraint2_6123  1
    Z_612_0_4  OBJ       -9.7436118617463374e-02
    Z_612_0_4  constraint1_6120  1
    Z_296_2_0  OBJ       -8.9667222686359127e-02
    Z_296_2_0  constraint1_2962  1
    Z_296_2_0  constraint2_2960  1
    Z_296_2_1  OBJ       -1.2156487028924649e-01
    Z_296_2_1  constraint1_2962  1
    Z_296_2_1  constraint2_2961  1
    Z_296_2_2  OBJ       -1.2538782492336628e-02
    Z_296_2_2  constraint1_2962  1
    Z_296_2_2  constraint2_2962  1
    Z_296_2_3  OBJ       -3.2800387168681416e-01
    Z_296_2_3  constraint1_2962  1
    Z_296_2_3  constraint2_2963  1
    Z_296_2_4  OBJ       -3.4822525284524347e-01
    Z_296_2_4  constraint1_2962  1
    Z_296_1_0  OBJ       -3.1062874173144939e-04
    Z_296_1_0  constraint1_2961  1
    Z_296_1_0  constraint2_2960  1
    Z_296_1_1  OBJ       -2.9880078966200412e-03
    Z_296_1_1  constraint1_2961  1
    Z_296_1_1  constraint2_2961  1
    Z_296_1_2  OBJ       -8.7007933231767487e-01
    Z_296_1_2  constraint1_2961  1
    Z_296_1_2  constraint2_2962  1
    Z_296_1_3  OBJ       -4.3887660041279902e-03
    Z_296_1_3  constraint1_2961  1
    Z_296_1_3  constraint2_2963  1
    Z_296_1_4  OBJ       -2.2233265039845643e-02
    Z_296_1_4  constraint1_2961  1
    Z_296_3_0  OBJ       -5.5795906818669624e-02
    Z_296_3_0  constraint1_2963  1
    Z_296_3_0  constraint2_2960  1
    Z_296_3_1  OBJ       -4.7619418890634167e-02
    Z_296_3_1  constraint1_2963  1
    Z_296_3_1  constraint2_2961  1
    Z_296_3_2  OBJ       -5.9404979349924884e-02
    Z_296_3_2  constraint1_2963  1
    Z_296_3_2  constraint2_2962  1
    Z_296_3_3  OBJ       -2.6903874538395778e-01
    Z_296_3_3  constraint1_2963  1
    Z_296_3_3  constraint2_2963  1
    Z_296_3_4  OBJ       -4.6814094955681351e-01
    Z_296_3_4  constraint1_2963  1
    Z_296_0_0  OBJ       -3.1062874173144939e-04
    Z_296_0_0  constraint1_2960  1
    Z_296_0_0  constraint2_2960  1
    Z_296_0_1  OBJ       -2.9880078966200412e-03
    Z_296_0_1  constraint1_2960  1
    Z_296_0_1  constraint2_2961  1
    Z_296_0_2  OBJ       -8.7007933231767487e-01
    Z_296_0_2  constraint1_2960  1
    Z_296_0_2  constraint2_2962  1
    Z_296_0_3  OBJ       -4.3887660041279902e-03
    Z_296_0_3  constraint1_2960  1
    Z_296_0_3  constraint2_2963  1
    Z_296_0_4  OBJ       -2.2233265039845643e-02
    Z_296_0_4  constraint1_2960  1
    Z_196_0_0  OBJ       -3.2405204875484784e-03
    Z_196_0_0  constraint1_1960  1
    Z_196_0_0  constraint2_1960  1
    Z_196_0_1  OBJ       -1.3951045118605122e-03
    Z_196_0_1  constraint1_1960  1
    Z_196_0_1  constraint2_1961  1
    Z_196_0_2  OBJ       -2.4547274140379596e-03
    Z_196_0_2  constraint1_1960  1
    Z_196_0_2  constraint2_1962  1
    Z_196_0_3  OBJ       -7.1584790702144074e-01
    Z_196_0_3  constraint1_1960  1
    Z_196_0_3  constraint2_1963  1
    Z_196_0_4  OBJ       -1.7706174056511226e-01
    Z_196_0_4  constraint1_1960  1
    Z_104_0_0  OBJ       -4.7453791715555035e-05
    Z_104_0_0  constraint1_1040  1
    Z_104_0_0  constraint2_1040  1
    Z_104_0_1  OBJ       -1.8564758284081980e-03
    Z_104_0_1  constraint1_1040  1
    Z_104_0_1  constraint2_1041  1
    Z_104_0_2  OBJ       -8.8869199712410352e-01
    Z_104_0_2  constraint1_1040  1
    Z_104_0_2  constraint2_1042  1
    Z_104_0_3  OBJ       -4.2060032901074275e-03
    Z_104_0_3  constraint1_1040  1
    Z_104_0_3  constraint2_1043  1
    Z_104_0_4  OBJ       -5.1980699656651837e-03
    Z_104_0_4  constraint1_1040  1
    MARKER    'MARKER'                 'INTEND'
RHS
    RHS1      constraint1_6120  1
    RHS1      constraint1_2962  1
    RHS1      constraint1_2961  1
    RHS1      constraint1_2963  1
    RHS1      constraint1_2960  1
    RHS1      constraint1_1960  1
    RHS1      constraint1_1040  1
    RHS1      constraint2_6120  1
    RHS1      constraint2_6121  1
    RHS1      constraint2_6122  1
    RHS1      constraint2_6123  1
    RHS1      constraint2_5630  1
    RHS1      constraint2_5631  1
    RHS1      constraint2_5632  1
    RHS1      constraint2_5633  1
    RHS1      constraint2_2960  1
    RHS1      constraint2_2961  1
    RHS1      constraint2_2962  1
    RHS1      constraint2_2963  1
    RHS1      constraint2_1960  1
    RHS1      constraint2_1961  1
    RHS1      constraint2_1962  1
    RHS1      constraint2_1963  1
    RHS1      constraint2_3690  1
    RHS1      constraint2_3691  1
    RHS1      constraint2_3692  1
    RHS1      constraint2_3693  1
    RHS1      constraint2_1040  1
    RHS1      constraint2_1041  1
    RHS1      constraint2_1042  1
    RHS1      constraint2_1043  1
BOUNDS
 UP BND1      Z_612_0_0  1
 UP BND1      Z_612_0_1  1
 UP BND1      Z_612_0_2  1
 UP BND1      Z_612_0_3  1
 UP BND1      Z_612_0_4  1
 UP BND1      Z_296_2_0  1
 UP BND1      Z_296_2_1  1
 UP BND1      Z_296_2_2  1
 UP BND1      Z_296_2_3  1
 UP BND1      Z_296_2_4  1
 UP BND1      Z_296_1_0  1
 UP BND1      Z_296_1_1  1
 UP BND1      Z_296_1_2  1
 UP BND1      Z_296_1_3  1
 UP BND1      Z_296_1_4  1
 UP BND1      Z_296_3_0  1
 UP BND1      Z_296_3_1  1
 UP BND1      Z_296_3_2  1
 UP BND1      Z_296_3_3  1
 UP BND1      Z_296_3_4  1
 UP BND1      Z_296_0_0  1
 UP BND1      Z_296_0_1  1
 UP BND1      Z_296_0_2  1
 UP BND1      Z_296_0_3  1
 UP BND1      Z_296_0_4  1
 UP BND1      Z_196_0_0  1
 UP BND1      Z_196_0_1  1
 UP BND1      Z_196_0_2  1
 UP BND1      Z_196_0_3  1
 UP BND1      Z_196_0_4  1
 UP BND1      Z_104_0_0  1
 UP BND1      Z_104_0_1  1
 UP BND1      Z_104_0_2  1
 UP BND1      Z_104_0_3  1
 UP BND1      Z_104_0_4  1
QUADOBJ
    Z_612_0_0  Z_296_1_0  -1.7033779598436260e-04
    Z_612_0_0  Z_296_0_0  -2.5711354309165524e-03
    Z_612_0_0  Z_196_0_0  -9.9507799234436634e-03
    Z_612_0_0  Z_104_0_0  -0.0005
    Z_612_0_1  Z_296_1_1  -1.7033779598436260e-04
    Z_612_0_1  Z_296_0_1  -2.5711354309165524e-03
    Z_612_0_1  Z_196_0_1  -9.9507799234436634e-03
    Z_612_0_1  Z_104_0_1  -0.0005
    Z_612_0_2  Z_296_1_2  -1.7033779598436260e-04
    Z_612_0_2  Z_296_0_2  -2.5711354309165524e-03
    Z_612_0_2  Z_196_0_2  -9.9507799234436634e-03
    Z_612_0_2  Z_104_0_2  -0.0005
    Z_612_0_3  Z_296_1_3  -1.7033779598436260e-04
    Z_612_0_3  Z_296_0_3  -2.5711354309165524e-03
    Z_612_0_3  Z_196_0_3  -9.9507799234436634e-03
    Z_612_0_3  Z_104_0_3  -0.0005
    Z_612_0_4  Z_296_1_4  -1.7033779598436260e-04
    Z_612_0_4  Z_296_0_4  -2.5711354309165524e-03
    Z_612_0_4  Z_196_0_4  -9.9507799234436634e-03
    Z_612_0_4  Z_104_0_4  -0.0005
    Z_296_1_0  Z_196_0_0  -8.4901132632778933e-04
    Z_296_1_1  Z_196_0_1  -8.4901132632778933e-04
    Z_296_1_2  Z_196_0_2  -8.4901132632778933e-04
    Z_296_1_3  Z_196_0_3  -8.4901132632778933e-04
    Z_296_1_4  Z_196_0_4  -8.4901132632778933e-04
    Z_296_0_0  Z_196_0_0  -8.4901132632778933e-04
    Z_296_0_1  Z_196_0_1  -8.4901132632778933e-04
    Z_296_0_2  Z_196_0_2  -8.4901132632778933e-04
    Z_296_0_3  Z_196_0_3  -8.4901132632778933e-04
    Z_296_0_4  Z_196_0_4  -8.4901132632778933e-04
    Z_196_0_0  Z_104_0_0  -1.9999999999999996e-01
    Z_196_0_1  Z_104_0_1  -1.9999999999999996e-01
    Z_196_0_2  Z_104_0_2  -1.9999999999999996e-01
    Z_196_0_3  Z_104_0_3  -1.9999999999999996e-01
    Z_196_0_4  Z_104_0_4  -1.9999999999999996e-01
ENDATA
