ilp_joint/output/osmosis_ilp.sol
# Solution for model osmosis_srl_ilp
# Objective value = 6.3833656099369280e+00
Z_417_0_0 0
Z_417_0_1 0
Z_417_0_2 1
Z_417_0_3 0
Z_568_0_0 0
Z_568_0_1 0
Z_568_0_2 1
Z_568_0_3 0
Z_267_0_0 0
Z_267_0_1 0
Z_267_0_2 1
Z_267_0_3 0
Z_612_0_0 0
Z_612_0_1 0
Z_612_0_2 1
Z_612_0_3 0
Z_563_0_0 0
Z_563_0_1 1
Z_563_0_2 0
Z_563_0_3 0
Z_614_0_0 0
Z_614_0_1 0
Z_614_0_2 1
Z_614_0_3 0
Z_398_0_0 0
Z_398_0_1 0
Z_398_0_2 1
Z_398_0_3 0
Z_369_0_0 0
Z_369_0_1 1
Z_369_0_2 0
Z_369_0_3 0
Z_626_0_0 0
Z_626_0_1 0
Z_626_0_2 0
Z_626_0_3 1
